(declare-const i2  Int)
(get-qe (forall ((not Bool)                                                            )                                                                                                                                                                          (> 665                 (div i2 850)                 )     ))
